unknown
(model
; cardinality of BoundSet is 3
(declare-sort BoundSet 0)
; rep: @uc_BoundSet_0
; rep: @uc_BoundSet_1
; rep: @uc_BoundSet_2
; cardinality of UnboundSet is 1
(declare-sort UnboundSet 0)
(declare-fun groundTerm_4 () UnboundSet)
(define-fun AreFloodedWithCars ((BOUND_VARIABLE_474 BoundSet)) Bool true)
(define-fun AreInTheWater ((BOUND_VARIABLE_474 BoundSet)) Bool true)
(define-fun AreFlooded ((BOUND_VARIABLE_474 BoundSet)) Bool true)
(define-fun IsOutside ((BOUND_VARIABLE_474 BoundSet)) Bool false)
)
sat
(model
; cardinality of BoundSet is 1
(declare-sort BoundSet 0)
; rep: @uc_BoundSet_0
; cardinality of UnboundSet is 1
(declare-sort UnboundSet 0)
(declare-fun groundTerm_9 () UnboundSet)
(define-fun AreFloodedWithCars ((BOUND_VARIABLE_511 BoundSet)) Bool true)
(define-fun AreInTheWater ((BOUND_VARIABLE_511 BoundSet)) Bool true)
(define-fun AreFlooded ((BOUND_VARIABLE_511 BoundSet)) Bool true)
(define-fun IsOutside ((BOUND_VARIABLE_511 BoundSet)) Bool false)
)
